proyfinal/src/viki/013/experimentInOfficeAgust.take6.output/0e2d4d55-aec2-4237-899e-6e6a089bc73e.als.out
Reading from standard input... Use '--help' for help.
============================[ Problem Statistics ]=============================
|                                                                             |
|  Number of variables:         87638                                         |
|  Number of clauses:          161767                                         |
|  Parse time:                   0.03 s                                       |
|                                                                             |
============================[ Search Statistics ]==============================
| Conflicts |          ORIGINAL         |          LEARNT          | Progress |
|           |    Vars  Clauses Literals |    Limit  Clauses Lit/Cl |          |
===============================================================================
|       100 |   64905   114525   286102 |    41992       99     36 | 25.940 % |
|       250 |   53618   114525   286102 |    46191      248     49 | 38.819 % |
|       475 |   53574    81640   205131 |    50810      466     52 | 38.869 % |
|       812 |   53558    81398   204540 |    55892      803     38 | 38.887 % |
|      1318 |   53558    81398   204540 |    61481     1309     49 | 38.887 % |
|      2077 |   53446    80973   203521 |    67629     2065     59 | 39.015 % |
|      3216 |   53379    80765   203045 |    74392     3200     65 | 39.091 % |
|      4924 |   52977    80410   202226 |    81831     4894     69 | 39.550 % |
|      7486 |   52481    77459   195082 |    90014     7431     65 | 40.116 % |
|     11330 |   51971    75277   189849 |    99016    10040     70 | 40.698 % |
|     17096 |   51586    73758   186076 |   108917    15756     65 | 41.137 % |
===============================================================================
restarts              : 63
conflicts             : 17816          (6460 /sec)
decisions             : 64239          (0.00 % random) (23292 /sec)
propagations          : 30771176       (11157207 /sec)
conflict literals     : 1132338        (44.66 % deleted)
Memory used           : 29.46 MB
CPU time              : 2.75796 s

INDETERMINATE
